//Number of items      		
175
//Bin Capacity      
1000
//Known Best Solution  		
83
//Weight of Item
     798         1
     795         1
     786         1
     782         1
     774         2
     773         1
     770         1
     765         1
     757         1
     753         1
     752         1
     750         1
     740         1
     737         2
     736         1
     729         1
     726         1
     722         1
     718         1
     715         1
     714         1
     711         1
     710         1
     708         1
     707         1
     688         1
     687         1
     681         1
     664         1
     651         1
     650         1
     630         2
     623         1
     622         1
     621         2
     620         1
     619         2
     616         1
     612         1
     608         1
     607         2
     606         1
     605         1
     603         1
     600         1
     593         1
     589         1
     586         1
     585         1
     580         1
     575         1
     567         1
     565         1
     564         1
     563         1
     560         1
     556         1
     555         1
     553         2
     550         3
     542         1
     536         2
     535         1
     527         1
     524         1
     523         1
     515         1
     509         1
     506         1
     504         1
     499         1
     498         2
     497         1
     493         1
     490         1
     489         1
     481         1
     479         1
     466         1
     464         1
     463         1
     462         2
     461         1
     454         1
     452         1
     434         1
     424         1
     423         1
     422         1
     421         1
     420         1
     419         1
     416         1
     415         1
     413         1
     410         1
     405         1
     399         1
     392         1
     391         1
     387         1
     384         1
     382         1
     377         3
     371         2
     364         1
     354         2
     347         1
     346         2
     341         1
     335         1
     333         1
     331         1
     324         1
     317         2
     311         1
     309         1
     308         1
     299         1
     295         1
     293         1
     283         1
     274         1
     270         1
     264         1
     256         1
     254         1
     251         1
     247         1
     244         1
     243         1
     230         1
     227         2
     215         1
     213         1
     209         1
     207         1
     204         2
     200         1
     198         1
     175         1
     144         1
     142         1
     141         1
     138         1
     129         1
     126         1
     124         1
     122         1
     121         2
     112         1
     110         1
     104         1
      92         1
      91         1
      83         1
      81         2
      79         1
      76         2
      75         1
      69         2
      68         1
      64         1
      53         1
      52         1
      50         1
      47         1
      37         1
      24         2
      23         1
      18         1
      14         1
      10         1
       9         1
       7         1